n_res = 5;
n_events = 202;
n_prec = 923;
source = 1;
sink = 202;
min_lvl = [-10, 0, -9, -23, -7];
max_lvl = [21, 17, 7, 9, 7];
rr = [| 0, -1, -1, 2, -1, 2, -2, -1, 0, 1, -2, 1, 1, 2, 2, -2, 2, -1, 2, 0, 1, 1, 0, -2, 1, -1, -1, -2, 0, 0, 1, 2, 2, -2, 2, -2, 2, 1, 0, -1, -1, 1, -1, 1, 0, -1, 0, 2, 0, 2, -1, 0, -2, 1, -2, 0, 0, -2, -2, -1, 0, 0, 0, 0, 1, -2, 0, -1, 1, 1, 2, 0, -2, 0, 2, -1, 2, 0, 1, 1, 0, 1, 0, 2, -1, 0, -2, 1, 1, -1, 2, 0, -1, 0, 2, 0, -2, 1, 1, 1, 0, 0, 0, 0, -2, -1, -2, 1, 1, -1, 1, 0, 0, 2, 1, -1, 0, -2, -1, -1, -2, 0, -1, 0, -1, 0, 0, 2, 1, 1, 1, -1, 1, 1, 2, 0, 0, 0, -2, 1, 2, -1, -2, -1, 2, 1, 0, -1, 1, -1, 1, 0, 0, 0, 0, 2, -2, -1, -2, -2, 1, -2, 0, 2, 0, 0, 1, 1, 2, 2, 1, -1, -1, -2, -2, 0, 0, 2, 0, 0, 0, -2, 0, 2, 2, 2, 2, 2, 1, 0, -1, 0, -1, -2, 0, 1, 1, 2, 2, 0, 1, 0
      | 0, 0, 0, 2, 0, -1, -2, 2, 0, -2, 2, 0, 2, 2, 1, 1, 2, 1, 1, 0, 2, -1, 0, -2, 0, -2, 2, 2, -2, 1, -2, -2, 1, 0, 1, 2, -2, -1, 0, 1, -2, -1, -2, -1, 0, 2, -2, 0, -2, 1, -1, 1, 2, 2, -2, 0, 0, -1, 2, -2, 2, 1, 2, 0, -2, 2, 2, 2, 0, 1, 2, 0, -1, 1, -2, 2, 0, 0, 2, 2, -2, -2, 1, 2, 0, -2, 2, -2, -1, 1, 2, -2, 0, 2, -2, -1, 0, 0, -2, -2, -2, 2, -1, -2, -1, 2, -1, -2, -2, 2, 1, 0, 2, -1, 1, 0, 2, -2, 0, 2, 0, -2, -1, 1, 2, 0, -2, 2, 0, 1, -2, 2, 2, 0, -2, -2, -2, 0, 1, 2, -2, 0, 2, 2, -2, -1, -2, -2, 2, 2, 0, 2, 1, 1, -2, 1, 0, -1, -1, 1, 0, -1, 0, 2, 0, 0, 1, 1, 1, -2, 1, 0, -2, 0, -2, 2, 0, 1, 2, 0, 0, 1, 1, -2, -1, -2, -2, 2, 0, 1, -2, -2, -1, -1, -2, -1, 1, -2, -1, 2, 0, 0
      | 0, 0, 1, -1, -2, -1, 1, 0, 2, -2, 0, -2, -1, -1, 1, -2, 1, -1, 1, 0, 1, 0, 0, 1, 0, -2, -2, 2, -1, 0, 0, 1, -1, 2, -1, 2, -2, -1, -2, 1, -1, -2, -2, -1, -2, 0, 0, 0, -2, 1, -1, 1, -2, 0, -1, 0, -1, -2, -1, -2, -1, -1, 2, -2, 1, 1, 0, 2, 2, 2, -1, 0, 0, -2, 1, 2, -2, -2, 2, 1, -1, 1, -1, -2, 0, 2, 0, 2, -2, -1, 2, 0, 2, 2, 0, 0, 2, 1, -2, 1, -2, 1, -1, 1, -2, -1, 0, -1, 2, 0, 1, 0, 1, 2, 1, 0, 0, -2, 2, 1, -1, 2, 2, 2, -1, -2, 2, -1, -2, 2, 2, 2, -1, 0, 2, 1, 0, -1, 1, 0, -2, 0, 0, 1, -1, -2, 0, 1, 1, 2, -2, 1, 0, -2, 2, 2, -2, -1, 2, 1, 0, 0, 1, 0, 2, 0, 1, -2, 1, 0, 1, 0, 2, 0, 2, 0, 2, -1, 0, -1, -2, -1, 2, -2, -2, -2, 2, -2, 0, -1, 1, 0, 2, 2, 0, -1, 1, 1, -2, 0, -1, 0
      | 0, -1, 2, -1, 0, -1, 1, -2, -2, 0, -1, -1, -1, -2, 0, -1, 2, 1, -2, 1, 1, 2, -1, -2, 0, -2, 2, 1, -1, 0, -2, 0, -2, 0, -1, -1, 2, 1, 2, 2, 2, 1, -2, 1, -1, -1, 1, 0, 1, -1, 2, 2, 1, 0, -2, -2, 0, -1, -1, 0, 0, -1, 0, 2, 0, -1, 0, -1, 1, 2, -1, -1, 2, 0, -1, 1, 1, -1, -1, -2, 2, -2, 0, 0, 0, -1, -1, -1, -1, 0, -1, 0, 2, -1, 2, -1, -2, 1, -2, -1, -1, -1, 2, 2, 2, 0, -2, 2, -2, 0, 1, 0, -1, 1, -1, 0, -1, -2, -2, -2, 2, -1, 0, -2, 0, 0, 2, 0, -1, 2, 2, -1, 0, 2, 2, 1, 0, 2, 2, 0, 1, -2, 0, 2, 0, 2, 0, 1, 1, -1, -2, 2, 0, 1, 2, -1, 0, -1, -1, 2, 2, -1, 2, -1, 0, 2, 0, 2, 1, 0, -2, 1, 2, 2, -2, -1, -1, 2, 0, 2, 1, -2, 0, -1, 0, 1, -1, 0, 0, 0, 2, 0, 0, -2, 0, 1, 1, 1, -1, 1, 0, 0
      | 0, -1, 1, 0, -2, 1, 2, 1, 0, 1, -1, -1, -1, 1, 0, 2, -1, -1, -2, 2, -2, 0, 2, -2, 0, 1, 1, -1, -1, 0, 2, 0, -1, 0, 1, -2, 2, 2, -1, -1, 2, -1, -1, -1, -2, 1, 0, 2, -1, -1, -2, 2, 1, 0, 1, 1, -1, -1, -1, -2, 0, -2, 0, 2, 2, -2, 0, -2, 0, 0, 2, -2, 0, 0, -1, 1, -1, 0, -1, -2, 2, -1, 1, 0, -2, 1, -2, -1, -1, 1, -1, 0, 0, -2, -2, 0, 0, 2, -2, 1, 0, -2, -2, 1, -1, 1, 2, 2, -2, 1, -2, -2, 2, -1, 2, 2, 0, -1, 0, -2, 0, 1, 0, 0, -2, 1, -1, 0, -2, -1, 2, 1, 1, -1, -2, -2, 0, 2, -1, 1, 1, 2, 2, 1, 0, 0, 1, -1, -1, -2, 2, 0, 0, 0, 0, -1, 1, 2, -1, -2, 0, 0, 1, 0, 0, -1, -1, 1, 2, 2, -2, 1, -2, 1, 1, -1, 1, 1, 0, 0, 0, 0, 0, 1, 0, 2, 1, 2, 0, 0, 2, 2, 2, -2, -1, -1, 2, -1, 1, 0, 2, 0 |];
prec = [| 1, 0, 9
        | 1, 0, 11
        | 1, 0, 24
        | 1, 0, 8
        | 1, 0, 5
        | 1, 0, 162
        | 1, 0, 4
        | 1, 0, 10
        | 1, 0, 3
        | 1, 0, 6
        | 1, 0, 111
        | 1, 0, 183
        | 1, 0, 2
        | 1, 0, 7
        | 2, 9, 118
        | 2, 10, 197
        | 2, 0, 39
        | 2, 10, 171
        | 2, 7, 88
        | 2, 3, 54
        | 3, 10, 13
        | 3, -9, 183
        | 3, 27, 198
        | 4, 6, 124
        | 4, 9, 106
        | 4, 1, 109
        | 5, -1, 192
        | 5, 5, 48
        | 5, -4, 41
        | 5, 2, 152
        | 6, 4, 108
        | 6, 4, 80
        | 7, 21, 19
        | 7, 7, 115
        | 7, 0, 161
        | 7, -7, 165
        | 8, 2, 107
        | 8, 2, 43
        | 8, 2, 35
        | 8, 1, 176
        | 8, 2, 193
        | 9, 4, 82
        | 9, 0, 140
        | 9, -1, 89
        | 9, 7, 93
        | 9, 9, 110
        | 10, -4, 139
        | 10, 13, 16
        | 11, 3, 25
        | 11, 0, 149
        | 11, 3, 172
        | 11, 2, 159
        | 12, 5, 97
        | 12, 4, 86
        | 12, 2, 61
        | 12, 4, 189
        | 13, 10, 167
        | 13, 9, 51
        | 13, 17, 131
        | 13, 2, 17
        | 13, -480, 77
        | 13, 2, 20
        | 13, 0, 160
        | 13, 18, 38
        | 14, 22, 186
        | 14, 16, 192
        | 14, -6, 41
        | 14, -439, 113
        | 14, -180, 88
        | 14, 9, 110
        | 15, 9, 179
        | 15, -156, 61
        | 15, 6, 67
        | 15, 16, 106
        | 15, -6, 189
        | 15, -3, 79
        | 16, 0, 56
        | 16, 0, 173
        | 16, 1, 139
        | 16, 1, 60
        | 17, -96, 156
        | 17, 22, 191
        | 17, -6, 103
        | 18, 6, 156
        | 18, 7, 127
        | 18, 1, 168
        | 18, 12, 13
        | 18, 10, 78
        | 18, 7, 199
        | 18, -4, 26
        | 18, 2, 191
        | 18, 4, 20
        | 18, -357, 120
        | 19, 1, 145
        | 19, 3, 138
        | 19, 0, 198
        | 19, 1, 161
        | 19, 3, 165
        | 20, -7, 131
        | 20, 1, 92
        | 21, -363, 143
        | 21, 11, 167
        | 21, -519, 38
        | 21, 20, 172
        | 21, -321, 13
        | 21, 20, 156
        | 21, -420, 183
        | 21, -434, 168
        | 21, -439, 111
        | 21, -588, 59
        | 22, 11, 165
        | 22, 12, 145
        | 22, 10, 198
        | 22, 1, 163
        | 22, -81, 7
        | 23, 0, 180
        | 23, 0, 81
        | 23, 2, 135
        | 23, 2, 161
        | 23, 2, 71
        | 23, 1, 25
        | 24, -1, 199
        | 24, 6, 22
        | 24, 0, 149
        | 24, 1, 162
        | 25, -290, 97
        | 25, -293, 106
        | 25, 8, 67
        | 26, -70, 160
        | 26, -158, 20
        | 26, -138, 92
        | 26, -120, 167
        | 26, 18, 127
        | 27, 6, 171
        | 27, 2, 87
        | 27, 5, 157
        | 27, -458, 84
        | 28, -1, 106
        | 28, 2, 65
        | 29, 16, 142
        | 29, -3, 73
        | 29, 19, 57
        | 29, 1, 156
        | 30, 10, 17
        | 30, -4, 184
        | 30, 23, 21
        | 30, 20, 180
        | 30, -3, 199
        | 30, -413, 66
        | 30, -457, 185
        | 31, -3, 171
        | 31, 0, 142
        | 31, -259, 29
        | 31, -220, 73
        | 31, 5, 177
        | 32, 4, 106
        | 32, 5, 155
        | 32, 2, 25
        | 32, 9, 79
        | 32, 4, 179
        | 32, 2, 15
        | 32, -226, 123
        | 33, -1, 36
        | 33, 1, 185
        | 33, -1, 116
        | 33, 0, 165
        | 34, 1, 197
        | 34, 9, 70
        | 35, 21, 43
        | 36, 3, 75
        | 36, -487, 111
        | 36, -405, 119
        | 36, 0, 102
        | 36, 0, 38
        | 36, 3, 191
        | 36, 4, 78
        | 36, 4, 69
        | 36, 0, 199
        | 37, 0, 100
        | 37, 1, 165
        | 37, 3, 20
        | 37, -353, 188
        | 37, -355, 49
        | 37, 3, 127
        | 37, 0, 148
        | 38, -439, 168
        | 38, -425, 95
        | 38, 10, 21
        | 38, -364, 149
        | 38, -311, 71
        | 38, 1, 160
        | 38, -633, 159
        | 38, -598, 119
        | 38, -377, 78
        | 39, 9, 34
        | 39, 1, 197
        | 39, 0, 47
        | 39, 20, 64
        | 40, 3, 70
        | 40, 2, 197
        | 40, 3, 50
        | 40, 3, 47
        | 40, 3, 34
        | 41, 21, 192
        | 41, 3, 130
        | 42, -472, 66
        | 42, 19, 131
        | 42, -458, 120
        | 42, -378, 135
        | 42, 16, 127
        | 42, -597, 183
        | 42, 10, 21
        | 42, -507, 100
        | 42, 7, 78
        | 42, -391, 36
        | 43, 1, 107
        | 43, 0, 193
        | 44, 7, 41
        | 44, 19, 130
        | 45, 19, 153
        | 45, -3, 96
        | 45, -38, 187
        | 45, 3, 110
        | 46, -1, 187
        | 46, 7, 96
        | 46, -27, 118
        | 46, -23, 181
        | 46, 10, 177
        | 46, -11, 104
        | 47, -4, 197
        | 47, 13, 50
        | 48, -6, 31
        | 48, -4, 73
        | 48, 10, 83
        | 49, 1, 131
        | 49, 0, 185
        | 49, -470, 183
        | 49, 0, 149
        | 49, 1, 22
        | 49, -343, 116
        | 49, 3, 100
        | 50, 11, 70
        | 50, 0, 34
        | 50, 3, 197
        | 51, 1, 17
        | 51, 18, 191
        | 51, 14, 103
        | 51, -112, 26
        | 51, -142, 160
        | 52, 12, 123
        | 53, 0, 32
        | 53, 2, 144
        | 53, 1, 67
        | 53, 1, 179
        | 53, 0, 189
        | 53, -281, 174
        | 54, 2, 76
        | 54, 2, 170
        | 54, 0, 157
        | 54, 1, 87
        | 54, 0, 88
        | 55, 6, 42
        | 55, 0, 120
        | 55, 2, 166
        | 55, -534, 132
        | 55, 8, 172
        | 55, 12, 77
        | 56, 2, 139
        | 56, 2, 60
        | 56, 1, 195
        | 57, 6, 82
        | 57, 2, 171
        | 57, 0, 14
        | 58, -9, 153
        | 58, 20, 41
        | 58, -9, 171
        | 58, 2, 54
        | 58, -27, 187
        | 58, 13, 177
        | 59, 0, 143
        | 59, 0, 42
        | 59, 0, 199
        | 59, 0, 156
        | 60, 4, 195
        | 60, 1, 139
        | 61, 0, 106
        | 61, -291, 28
        | 61, -1, 174
        | 61, 4, 189
        | 61, 3, 144
        | 61, 2, 52
        | 62, 15, 44
        | 62, 15, 110
        | 62, -281, 9
        | 62, 4, 121
        | 62, -366, 5
        | 62, 7, 127
        | 62, -224, 82
        | 62, -368, 57
        | 63, -3, 52
        | 63, 14, 86
        | 63, 15, 123
        | 63, 9, 61
        | 63, 22, 12
        | 64, -2, 34
        | 64, 4, 70
        | 64, 3, 40
        | 64, -6, 47
        | 65, 0, 151
        | 65, 1, 53
        | 65, -8, 146
        | 65, -7, 126
        | 65, 15, 86
        | 66, 13, 164
        | 66, 0, 99
        | 67, -171, 126
        | 67, -215, 146
        | 67, -248, 65
        | 67, 15, 189
        | 67, -248, 25
        | 67, -174, 155
        | 68, 12, 95
        | 68, 23, 13
        | 68, -299, 147
        | 68, -611, 135
        | 68, 21, 163
        | 69, -276, 172
        | 69, -609, 38
        | 69, -469, 99
        | 69, 0, 160
        | 69, -579, 143
        | 69, -582, 168
        | 69, 0, 20
        | 69, -643, 23
        | 70, 6, 197
        | 71, -307, 49
        | 71, -419, 23
        | 71, 4, 127
        | 71, -555, 117
        | 71, 4, 36
        | 72, 5, 27
        | 72, 3, 57
        | 72, -3, 98
        | 72, 18, 85
        | 72, 6, 133
        | 73, 1, 141
        | 74, 9, 196
        | 74, 0, 82
        | 74, 1, 91
        | 74, 16, 192
        | 75, 4, 167
        | 75, 0, 26
        | 75, 6, 17
        | 75, 0, 160
        | 75, 0, 103
        | 75, 3, 156
        | 76, -57, 45
        | 76, 3, 113
        | 77, 0, 49
        | 77, 2, 18
        | 77, -545, 169
        | 78, 10, 167
        | 78, -5, 13
        | 78, -592, 36
        | 78, -554, 117
        | 78, 17, 160
        | 78, -591, 150
        | 78, -5, 20
        | 78, -532, 143
        | 78, -608, 185
        | 78, -442, 169
        | 78, -302, 42
        | 78, -5, 114
        | 79, 7, 106
        | 79, -166, 155
        | 79, -267, 109
        | 79, 15, 189
        | 80, -1, 158
        | 80, 10, 194
        | 81, 1, 71
        | 81, 3, 78
        | 81, 15, 20
        | 81, 3, 164
        | 82, 3, 157
        | 82, 0, 112
        | 82, 0, 152
        | 83, -2, 29
        | 83, 4, 127
        | 83, 0, 186
        | 83, 11, 91
        | 83, 8, 62
        | 83, -1, 191
        | 84, -2, 131
        | 84, 11, 130
        | 84, 11, 182
        | 84, 10, 62
        | 84, -345, 9
        | 84, 0, 74
        | 85, -2, 110
        | 85, -1, 192
        | 85, -1, 130
        | 85, 3, 41
        | 85, -289, 182
        | 85, 4, 44
        | 85, -459, 121
        | 85, -186, 133
        | 85, -329, 171
        | 85, -404, 57
        | 86, 6, 174
        | 86, 3, 53
        | 86, 3, 179
        | 86, 9, 32
        | 87, 15, 186
        | 87, 4, 85
        | 87, -5, 110
        | 87, 3, 142
        | 87, 10, 14
        | 88, -408, 83
        | 88, 8, 87
        | 88, 15, 142
        | 88, -237, 182
        | 88, 6, 130
        | 88, 14, 14
        | 88, 15, 192
        | 89, -446, 73
        | 89, 8, 112
        | 89, 12, 137
        | 90, -5, 190
        | 90, 6, 202
        | 91, 28, 93
        | 91, -3, 177
        | 92, 5, 131
        | 92, -134, 20
        | 92, 5, 114
        | 93, 6, 142
        | 93, -1, 130
        | 93, 22, 31
        | 93, -328, 134
        | 93, -8, 85
        | 94, 0, 66
        | 94, 17, 55
        | 94, 9, 198
        | 94, 18, 114
        | 95, 16, 145
        | 95, 12, 77
        | 95, -518, 135
        | 96, 14, 101
        | 96, 23, 64
        | 96, -4, 70
        | 97, 3, 32
        | 97, 0, 28
        | 97, -147, 4
        | 97, 0, 174
        | 97, 5, 61
        | 98, 0, 89
        | 98, -410, 84
        | 98, 3, 75
        | 98, 2, 62
        | 99, 1, 136
        | 99, 6, 167
        | 99, -1, 149
        | 100, -5, 127
        | 100, -1, 42
        | 100, -5, 51
        | 100, 21, 36
        | 100, -473, 178
        | 100, -4, 117
        | 100, -6, 131
        | 100, -515, 3
        | 100, 8, 21
        | 101, 11, 39
        | 101, -3, 47
        | 102, -584, 117
        | 102, -414, 49
        | 102, 0, 168
        | 102, 0, 75
        | 102, -274, 149
        | 102, 3, 180
        | 103, -113, 127
        | 103, -87, 26
        | 103, 11, 191
        | 104, -36, 2
        | 104, -38, 118
        | 104, 8, 187
        | 104, 0, 181
        | 105, 21, 145
        | 105, 9, 188
        | 105, 21, 114
        | 105, 3, 180
        | 105, -3, 69
        | 105, 18, 20
        | 106, 18, 25
        | 106, 1, 189
        | 106, -256, 32
        | 106, 1, 67
        | 107, -1, 193
        | 108, 3, 80
        | 109, 5, 63
        | 109, 6, 144
        | 110, 19, 192
        | 110, 24, 44
        | 110, -241, 88
        | 110, 2, 112
        | 110, 15, 41
        | 110, -402, 113
        | 110, -450, 93
        | 110, -300, 85
        | 110, -4, 130
        | 110, -349, 14
        | 111, 12, 185
        | 111, 17, 190
        | 111, 18, 90
        | 111, 3, 22
        | 111, 7, 160
        | 111, 0, 49
        | 111, 11, 199
        | 111, 10, 119
        | 112, 9, 44
        | 112, 4, 192
        | 112, 7, 41
        | 112, 0, 130
        | 113, 27, 137
        | 113, 27, 200
        | 113, 22, 91
        | 113, 9, 96
        | 113, 20, 192
        | 113, 18, 41
        | 113, 19, 39
        | 114, 0, 160
        | 114, -3, 75
        | 114, 4, 191
        | 114, 4, 131
        | 114, 0, 26
        | 115, 0, 19
        | 115, 4, 22
        | 115, 5, 161
        | 116, 9, 38
        | 116, -1, 119
        | 116, -291, 105
        | 116, 20, 49
        | 116, 2, 19
        | 116, 2, 51
        | 116, 16, 18
        | 116, 16, 172
        | 116, 20, 66
        | 116, 0, 68
        | 117, -5, 127
        | 117, 21, 129
        | 117, -515, 11
        | 117, -518, 178
        | 117, 25, 165
        | 118, 9, 192
        | 118, 6, 76
        | 118, 13, 91
        | 118, 2, 39
        | 118, -15, 2
        | 118, 0, 41
        | 118, 15, 104
        | 119, 10, 184
        | 119, 6, 165
        | 119, 0, 22
        | 119, 6, 37
        | 119, 4, 145
        | 120, -346, 169
        | 120, 1, 154
        | 120, -5, 105
        | 121, -326, 57
        | 121, 18, 127
        | 121, -5, 191
        | 121, 25, 131
        | 121, -5, 114
        | 121, 15, 91
        | 122, 8, 165
        | 122, 18, 198
        | 122, -4, 163
        | 122, 4, 138
        | 122, -86, 115
        | 123, -153, 4
        | 123, 5, 126
        | 123, 5, 53
        | 123, 8, 189
        | 123, 8, 106
        | 123, 5, 67
        | 123, 6, 86
        | 123, -215, 28
        | 124, -4, 67
        | 124, 8, 61
        | 124, -220, 65
        | 125, 4, 196
        | 125, 5, 84
        | 125, 7, 88
        | 126, 25, 189
        | 126, 24, 144
        | 126, 14, 106
        | 126, 3, 146
        | 126, 15, 155
        | 126, -279, 63
        | 126, -183, 109
        | 126, 14, 25
        | 126, 21, 79
        | 127, 14, 103
        | 127, -108, 20
        | 127, 14, 191
        | 127, 13, 51
        | 128, -27, 187
        | 128, -7, 85
        | 128, 15, 87
        | 128, 11, 14
        | 128, 4, 133
        | 128, 14, 110
        | 128, 6, 58
        | 129, 3, 38
        | 129, 11, 148
        | 129, 5, 191
        | 129, -3, 17
        | 129, 10, 19
        | 129, -1, 160
        | 130, 4, 192
        | 131, 10, 127
        | 131, -150, 114
        | 131, 22, 160
        | 131, 15, 75
        | 131, 15, 51
        | 132, 0, 167
        | 132, 7, 178
        | 132, -2, 165
        | 133, -3, 44
        | 133, 16, 85
        | 133, -425, 142
        | 133, -457, 84
        | 134, 2, 72
        | 134, 1, 62
        | 134, 0, 26
        | 135, 7, 188
        | 135, 17, 100
        | 135, -609, 23
        | 135, 11, 169
        | 136, 21, 18
        | 136, 4, 26
        | 136, -471, 169
        | 136, -3, 81
        | 137, -6, 133
        | 137, 6, 27
        | 137, -336, 57
        | 137, -1, 110
        | 137, 22, 192
        | 137, -243, 72
        | 138, -88, 165
        | 138, -2, 198
        | 138, 4, 202
        | 139, 23, 195
        | 140, 2, 110
        | 140, 1, 177
        | 140, 1, 74
        | 140, 0, 125
        | 140, 0, 93
        | 140, 0, 85
        | 141, -273, 83
        | 141, 4, 134
        | 141, 9, 137
        | 142, 2, 133
        | 142, 8, 130
        | 142, 4, 85
        | 142, -448, 89
        | 142, 9, 112
        | 142, -2, 192
        | 142, -225, 14
        | 143, -525, 184
        | 143, -374, 30
        | 143, -515, 100
        | 143, 18, 71
        | 143, 25, 38
        | 143, -546, 23
        | 144, -5, 32
        | 144, -303, 4
        | 144, -160, 146
        | 144, 9, 15
        | 144, -185, 28
        | 145, -82, 7
        | 145, -1, 198
        | 145, 3, 122
        | 145, -82, 161
        | 146, -3, 106
        | 146, 5, 179
        | 146, -146, 151
        | 146, 6, 53
        | 146, 10, 144
        | 146, 18, 155
        | 146, 10, 79
        | 147, 25, 95
        | 147, 3, 150
        | 147, 20, 66
        | 147, -8, 42
        | 148, -333, 81
        | 148, 0, 175
        | 148, 1, 199
        | 148, -372, 185
        | 148, -543, 135
        | 148, 12, 138
        | 149, 12, 20
        | 149, -309, 119
        | 149, 11, 59
        | 150, 13, 164
        | 150, 0, 94
        | 150, 13, 179
        | 151, -1, 155
        | 151, -222, 109
        | 151, 3, 67
        | 151, 3, 124
        | 151, 0, 146
        | 151, 6, 179
        | 151, 0, 15
        | 151, 1, 86
        | 151, -171, 28
        | 152, 0, 98
        | 152, 1, 121
        | 152, 0, 89
        | 152, 1, 31
        | 153, 6, 27
        | 153, 4, 142
        | 153, 2, 91
        | 153, 3, 44
        | 153, 1, 112
        | 153, 4, 76
        | 153, -36, 45
        | 153, 0, 200
        | 154, -534, 59
        | 154, -297, 172
        | 154, -546, 117
        | 154, 1, 69
        | 154, 2, 26
        | 154, -585, 150
        | 154, -1, 167
        | 154, 1, 201
        | 154, -534, 37
        | 154, 6, 156
        | 154, -1, 160
        | 155, -7, 179
        | 155, -3, 67
        | 155, -2, 189
        | 155, -7, 15
        | 155, -290, 174
        | 155, 0, 106
        | 155, 17, 25
        | 156, -93, 20
        | 156, 2, 26
        | 156, 2, 103
        | 156, 0, 191
        | 156, -170, 114
        | 156, -172, 131
        | 157, 16, 112
        | 157, -5, 171
        | 157, -395, 121
        | 157, 18, 130
        | 157, 5, 186
        | 157, 10, 85
        | 157, -219, 93
        | 158, 9, 202
        | 158, 0, 194
        | 159, 0, 30
        | 159, 26, 116
        | 159, 16, 154
        | 159, -1, 161
        | 159, -2, 23
        | 160, -4, 26
        | 160, 11, 156
        | 161, 0, 163
        | 161, 6, 138
        | 161, 4, 122
        | 161, -2, 198
        | 161, 0, 22
        | 161, -2, 165
        | 162, 0, 175
        | 162, 3, 198
        | 162, 7, 143
        | 162, 5, 190
        | 162, -2, 111
        | 163, -2, 198
        | 163, 7, 202
        | 163, -2, 138
        | 163, -67, 145
        | 163, -54, 165
        | 163, -75, 22
        | 163, -73, 115
        | 164, 0, 166
        | 164, 1, 156
        | 165, 12, 163
        | 165, -3, 198
        | 165, -3, 138
        | 165, -59, 115
        | 165, -70, 145
        | 166, 6, 77
        | 166, 7, 18
        | 166, -612, 164
        | 166, 9, 22
        | 166, 9, 51
        | 166, 13, 68
        | 167, -5, 51
        | 167, -140, 131
        | 167, 11, 156
        | 167, 0, 160
        | 167, 5, 17
        | 168, 2, 201
        | 168, 0, 172
        | 168, 7, 69
        | 168, 2, 42
        | 168, -401, 99
        | 169, 0, 148
        | 169, 1, 132
        | 169, 0, 94
        | 169, 0, 184
        | 170, 4, 64
        | 170, 17, 85
        | 170, 15, 96
        | 170, 8, 45
        | 170, -30, 187
        | 171, -285, 57
        | 171, 14, 110
        | 171, 19, 192
        | 171, -5, 41
        | 171, 19, 88
        | 172, 17, 51
        | 172, -371, 13
        | 172, 2, 127
        | 172, -466, 38
        | 172, -363, 21
        | 172, -618, 78
        | 172, 16, 154
        | 172, -297, 59
        | 172, -306, 175
        | 173, 0, 56
        | 173, 17, 60
        | 173, 1, 139
        | 173, -5, 195
        | 174, 7, 179
        | 174, -259, 151
        | 174, -184, 4
        | 174, 10, 126
        | 174, 6, 32
        | 175, 2, 30
        | 175, -615, 94
        | 175, 0, 160
        | 176, 1, 43
        | 176, -3, 107
        | 176, 1, 35
        | 176, 0, 193
        | 177, -271, 140
        | 177, 3, 137
        | 177, 0, 89
        | 177, 0, 110
        | 177, 0, 88
        | 178, -1, 147
        | 178, 3, 191
        | 178, -1, 99
        | 178, -1, 20
        | 179, 6, 79
        | 179, 0, 106
        | 179, -204, 144
        | 179, -128, 155
        | 179, 0, 67
        | 180, 7, 18
        | 180, -6, 191
        | 180, 2, 38
        | 181, -39, 118
        | 181, 3, 200
        | 181, 0, 46
        | 181, -25, 104
        | 181, 2, 197
        | 181, 1, 50
        | 181, 3, 171
        | 182, 0, 74
        | 182, 0, 133
        | 182, 4, 44
        | 183, 3, 24
        | 183, 6, 145
        | 184, -633, 164
        | 184, -4, 172
        | 184, -440, 132
        | 184, 11, 149
        | 184, 12, 114
        | 184, 8, 180
        | 184, 15, 36
        | 184, 3, 19
        | 185, 5, 149
        | 185, 10, 119
        | 185, 7, 100
        | 185, 0, 191
        | 186, 17, 142
        | 186, -457, 9
        | 186, 11, 192
        | 186, 11, 85
        | 187, -2, 130
        | 187, 0, 58
        | 187, 2, 128
        | 188, 13, 33
        | 188, 8, 19
        | 188, 24, 17
        | 189, -258, 52
        | 189, -264, 151
        | 189, -253, 124
        | 189, -207, 126
        | 189, 4, 202
        | 189, -238, 67
        | 190, 1, 202
        | 191, -133, 160
        | 191, -122, 103
        | 191, -134, 156
        | 191, -138, 92
        | 191, 9, 202
        | 192, 2, 202
        | 193, 8, 202
        | 194, 5, 202
        | 195, 4, 202
        | 196, 1, 202
        | 197, 8, 202
        | 198, 4, 202
        | 198, -76, 138
        | 198, -41, 163
        | 198, -81, 19
        | 198, -77, 145
        | 199, 9, 202
        | 200, 8, 202
        | 201, 7, 202 |];
